\ENCODING=ISO-8859-1
\Problem name: 

Minimize
 obj: 58 t0_x + 97 t1_x + 91 t2_x + 106 t3_x + 104 t4_x + 92 t5_x + 95 t6_x
      + 103 t7_x + 92 t8_x + 101 t9_x + 94 t10_x + 105 t11_x + 97 t12_x
      + 93 t13_x + 53 t14_x + 52 t15_x + 48 t16_x + 105 t17_x + 102 t18_x
      + 48 t19_x + 52 t20_x + 79 t21_x + 59 t22_x + 95 t23_x + 53 t24_x
      + 53 t25_x + 49 t26_x + 52 t27_x + 45 t28_x + 48 t29_x + 67 t30_x
      + 101 t31_x + 50 t32_x + 99 t33_x + 100 t34_x + 103 t35_x + 103 t36_x
      + 97 t37_x + 99 t38_x + 94 t39_x + 46 t40_x + 51 t41_x + 105 t42_x
      + 51 t43_x + 98 t44_x + 54 t45_x + 49 t46_x + 50 t47_x + 52 t48_x
      + 51 t49_x + 45 t50_x + 100 t51_x + 54 t52_x + 102 t53_x + 94 t54_x
      + 101 t55_x + 100 t56_x + 102 t57_x + 49 t58_x + 54 t59_x + 53 t60_x
      + 90 t61_x + 47 t62_x + 109 t63_x + 45 t64_x + 48 t65_x + 45 t66_x
      + 101 t67_x + 68 t68_x + 46 t69_x + 94 t70_x + 45 t71_x + 45 t72_x
      + 54 t73_x + 51 t74_x + 68 t75_x + 71 t76_x + 104 t77_x + 54 t78_x
      + 52 t79_x + 48 t80_x + 47 t81_x + 48 t82_x + 106 t83_x + 51 t84_x
      + 49 t85_x + 95 t86_x + 100 t87_x + 47 t88_x + 73 t89_x + 50 t90_x
      + 48 t91_x + 52 t92_x + 120 t93_x + 102 t94_x + 108 t95_x + 107 t96_x
      + 107 t97_x + 105 t98_x + 91 t99_x + 90 t100_x + 53 t101_x + 45 t102_x
      + 52 t103_x + 98 t104_x + 54 t105_x + 53 t106_x + 49 t107_x + 53 t108_x
      + 59 t109_x + 79 t110_x + 48 t111_x + 46 t112_x + 54 t113_x + 45 t114_x
      + 45 t115_x + 214 t116_x + 52 t117_x + 47 t118_x + 244 t119_x + 49 t120_x
      + 52 t121_x + 56 t122_x + 54 t123_x + 50 t124_x + 47 t125_x + 124 t126_x
      + 51 t127_x + 46 t128_x + 50 t129_x + 50 t130_x + 45 t131_x + 45 t132_x
      + 151 t133_x + 114 t134_x + 82 t135_x + 53 t136_x + 54 t137_x + 46 t138_x
      + 50 t139_x + 54 t140_x + 220 t141_x + 49 t142_x + 51 t143_x + 108 t144_x
      + 119 t145_x + 72 t146_x + 53 t147_x + 80 t148_x + 49 t149_x + 255 t150_x
      + 90 t151_x + 197 t152_x + 52 t153_x + 55 t154_x + 48 t155_x + 99 t156_x
      + 53 t157_x + 53 t158_x + 49 t159_x + 51 t160_x + 52 t161_x + 133 t162_x
      + 49 t163_x + 48 t164_x + 51 t165_x + 94 t166_x + 46 t167_x + 45 t168_x
      + 49 t169_x + 51 t170_x + 100 t171_x + 187 t172_x + 55 t173_x + 99 t174_x
      + 53 t175_x + 110 t176_x + 130 t177_x + 51 t178_x + 54 t179_x
      + 109 t180_x + 52 t181_x + 45 t182_x + 46 t183_x + 53 t184_x + 50 t185_x
      + 199 t186_x + 104 t187_x + 98 t188_x + 101 t189_x + 107 t190_x
      + 97 t191_x + 92 t192_x + 106 t193_x + 101 t194_x + 94 t195_x
      + 108 t196_x + 156 t197_x + 326 t198_x + 52 t199_x + 53 t200_x
      + 48 t201_x + 53 t202_x + 50 t203_x + 54 t204_x + 45 t205_x + 53 t206_x
      + 54 t207_x + 52 t208_x + 47 t209_x + 97 t210_x + 50 t211_x + 48 t212_x
      + 102 t213_x + 47 t214_x + 45 t215_x + 54 t216_x + 206 t217_x
      + 126 t218_x + 51 t219_x + 46 t220_x + 49 t221_x + 50 t222_x + 50 t223_x
      + 47 t224_x + 55 t225_x + 50 t226_x + 53 t227_x + 131 t228_x + 48 t229_x
      + 54 t230_x + 52 t231_x + 53 t232_x + 47 t233_x + 53 t234_x + 51 t235_x
      + 53 t236_x + 54 t237_x + 53 t238_x + 47 t239_x + 46 t240_x + 45 t241_x
      + 56 t242_x + 47 t243_x + 46 t244_x + 178 t245_x + 104 t246_x
      + 101 t247_x + 97 t248_x + 92 t249_x + 98 t250_x + 109 t251_x + 98 t252_x
      + 94 t253_x + 106 t254_x + 106 t255_x + 49 t256_x + 53 t257_x
      + 126 t258_x + 45 t259_x + 51 t260_x + 49 t261_x + 53 t262_x + 54 t263_x
      + 52 t264_x + 46 t265_x + 48 t266_x + 49 t267_x + 54 t268_x + 176 t269_x
      + 224 t270_x + 46 t271_x + 48 t272_x + 48 t273_x + 45 t274_x + 48 t275_x
      + 53 t276_x + 45 t277_x + 45 t278_x + 53 t279_x + 48 t280_x + 50 t281_x
      + 50 t282_x + 47 t283_x + 53 t284_x + 54 t285_x + 70 t286_x + 48 t287_x
      + 48 t288_x + 48 t289_x + 46 t290_x + 48 t291_x + 54 t292_x + 242 t293_x
      + 103 t294_x + 102 t295_x + 99 t296_x + 104 t297_x + 93 t298_x
      + 97 t299_x + 93 t300_x + 100 t301_x + 98 t302_x + 97 t303_x + 102 t304_x
      + 47 t305_x + 109 t306_x + 86 t307_x + 53 t308_x + 50 t309_x + 47 t310_x
      + 47 t311_x + 47 t312_x + 49 t313_x + 53 t314_x + 54 t315_x + 151 t316_x
      + 46 t317_x + 52 t318_x + 51 t319_x + 47 t320_x + 52 t321_x + 53 t322_x
      + 94 t323_x + 46 t324_x + 102 t325_x + 102 t326_x + 221 t327_x
      + 90 t328_x + 99 t329_x + 107 t330_x + 92 t331_x + 106 t332_x + 92 t333_x
      + 105 t334_x + 107 t335_x + 96 t336_x + 53 t337_x + 48 t338_x + 51 t339_x
      + 52 t340_x + 54 t341_x + 173 t342_x + 95 t343_x + 105 t344_x + 93 t345_x
      + 97 t346_x + 98 t347_x + 92 t348_x + 100 t349_x + 104 t350_x
      + 104 t351_x + 73 t352_x + 177 t353_x + 70 t354_x + 46 t355_x + 52 t356_x
      + 46 t357_x + 46 t358_x + 49 t359_x + 94 t360_x + 45 t361_x + 93 t362_x
      + 51 t363_x + 54 t364_x + 103 t365_x + 50 t366_x + 49 t367_x + 51 t368_x
      + 92 t369_x + 277 t370_x + 50 t371_x + 49 t372_x + 46 t373_x + 103 t374_x
      + 52 t375_x + 48 t376_x + 48 t377_x + 102 t378_x + 189 t379_x
      + 224 t380_x + 95 t381_x + 52 t382_x + 52 t383_x + 53 t384_x + 102 t385_x
      + 99 t386_x + 46 t387_x + 52 t388_x + 52 t389_x + 68 t390_x + 105 t391_x
      + 81 t392_x + 66 t393_x + 52 t394_x + 108 t395_x + 98 t396_x + 47 t397_x
      + 50 t398_x + 53 t399_x + 51 t400_x + 63 t401_x + 99 t402_x + 95 t403_x
      + 93 t404_x + 49 t405_x + 52 t406_x + 51 t407_x + 53 t408_x + 50 t409_x
      + 45 t410_x + 50 t411_x + 52 t412_x + 48 t413_x + 51 t414_x + 127 t415_x
      + 100 t416_x + 47 t417_x + 45 t418_x + 47 t419_x + 45 t420_x + 92 t421_x
      + 51 t422_x + 55 t423_x + 108 t424_x + 109 t425_x + 49 t426_x + 46 t427_x
      + 51 t428_x + 48 t429_x + 50 t430_x + 46 t431_x + 51 t432_x + 125 t433_x
      + 207 t434_x + 53 t435_x + 48 t436_x + 89 t437_x + 53 t438_x + 49 t439_x
      + 53 t440_x + 50 t441_x + 105 t442_x + 49 t443_x + 47 t444_x + 47 t445_x
      + 45 t446_x + 99 t447_x + 51 t448_x + 108 t449_x + 54 t450_x + 52 t451_x
      + 53 t452_x + 106 t453_x + 102 t454_x + 52 t455_x + 48 t456_x + 47 t457_x
      + 51 t458_x + 106 t459_x + 106 t460_x + 95 t461_x + 126 t462_x
      + 68 t463_x + 58 t464_x + 53 t465_x + 47 t466_x + 48 t467_x + 46 t468_x
      + 53 t469_x + 49 t470_x + 100 t471_x + 47 t472_x + 47 t473_x + 96 t474_x
      + 45 t475_x + 46 t476_x + 54 t477_x + 106 t478_x + 109 t479_x
      + 172 t480_x + 96 t481_x + 95 t482_x + 95 t483_x + 99 t484_x + 103 t485_x
      + 108 t486_x + 100 t487_x + 49 t488_x + 51 t489_x + 49 t490_x + 54 t491_x
      + 45 t492_x + 47 t493_x + 45 t494_x + 107 t495_x + 52 t496_x + 51 t497_x
      + 92 t498_x + 45 t499_x + 111 t500_x + 47 t501_x + 119 t502_x + 45 t503_x
      + 54 t504_x + 101 t505_x + 48 t506_x + 47 t507_x + 50 t508_x + 99 t509_x
      + 46 t510_x + 48 t511_x + 54 t512_x + 47 t513_x + 53 t514_x + 95 t515_x
      + 92 t516_x + 45 t517_x + 50 t518_x + 47 t519_x + 54 t520_x + 90 t521_x
      + 53 t522_x + 48 t523_x + 107 t524_x + 47 t525_x + 45 t526_x + 50 t527_x
      + 53 t528_x + 45 t529_x + 50 t530_x + 106 t531_x + 46 t532_x + 54 t533_x
      + 90 t534_x + 54 t535_x + 54 t536_x + 50 t537_x + 103 t538_x + 52 t539_x
      + 51 t540_x + 207 t541_x + 93 t542_x + 203 t543_x + 50 t544_x + 48 t545_x
      + 51 t546_x + 91 t547_x + 51 t548_x + 45 t549_x + 48 t550_x + 52 t551_x
      + 97 t552_x + 45 t553_x + 150 t554_x + 100 t555_x + 103 t556_x
      + 91 t557_x + 99 t558_x + 137 t559_x + 101 t560_x + 72 t561_x + 47 t562_x
      + 101 t563_x + 47 t564_x + 54 t565_x + 46 t566_x + 50 t567_x + 58 t568_x
      + 53 t569_x + 101 t570_x + 100 t571_x + 105 t572_x + 202 t573_x
      + 52 t574_x + 51 t575_x + 46 t576_x + 106 t577_x + 49 t578_x + 50 t579_x
      + 48 t580_x + 331 t581_x + 110 t582_x + 91 t583_x + 89 t584_x + 53 t585_x
      + 47 t586_x + 53 t587_x + 52 t588_x + 265 t589_x + 51 t590_x + 51 t591_x
      + 90 t592_x + 47 t593_x + 50 t594_x + 48 t595_x + 129 t596_x + 50 t597_x
      + 47 t598_x + 52 t599_x + 45 t600_x + 50 t601_x + 131 t602_x + 362 t603_x
      + 73 t604_x + 98 t605_x + 95 t606_x + 54 t607_x + 60 t608_x + 119 t609_x
      + 107 t610_x + 100 t611_x + 187 t612_x + 106 t613_x + 92 t614_x
      + 108 t615_x + 98 t616_x + 224 t617_x + 50 t618_x + 45 t619_x + 46 t620_x
      + 52 t621_x + 54 t622_x + 54 t623_x + 98 t624_x + 45 t625_x + 91 t626_x
      + 102 t627_x + 106 t628_x + 47 t629_x + 161 t630_x + 53 t631_x
      + 50 t632_x + 54 t633_x + 45 t634_x + 48 t635_x + 65 t636_x + 50 t637_x
      + 49 t638_x + 50 t639_x + 47 t640_x + 46 t641_x + 49 t642_x + 58 t643_x
      + 124 t644_x + 181 t645_x + 99 t646_x + 106 t647_x + 109 t648_x
      + 54 t649_x + 108 t650_x + 94 t651_x + 53 t652_x + 90 t653_x + 95 t654_x
      + 113 t655_x + 50 t656_x + 105 t657_x + 109 t658_x + 101 t659_x
      + 97 t660_x + 96 t661_x + 93 t662_x + 106 t663_x + 119 t664_x + 53 t665_x
      + 46 t666_x + 47 t667_x + 47 t668_x + 114 t669_x + 83 t670_x + 232 t671_x
      + 54 t672_x + 135 t673_x + 49 t674_x + 52 t675_x + 96 t676_x + 49 t677_x
      + 118 t678_x + 134 t679_x + 48 t680_x + 53 t681_x + 56 t682_x
      + 297 t683_x + 96 t684_x + 109 t685_x + 49 t686_x + 95 t687_x
      + 183 t688_x + 45 t689_x + 50 t690_x + 197 t691_x + 54 t692_x + 54 t693_x
      + 206 t694_x + 98 t695_x + 51 t696_x + 51 t697_x + 117 t698_x
      + 107 t699_x + 52 t700_x + 111 t701_x + 51 t702_x + 97 t703_x
      + 232 t704_x + 54 t705_x + 54 t706_x + 102 t707_x + 127 t708_x
      + 45 t709_x + 46 t710_x + 47 t711_x + 46 t712_x + 54 t713_x + 91 t714_x
      + 46 t715_x + 54 t716_x + 96 t717_x + 98 t718_x + 149 t719_x + 48 t720_x
      + 49 t721_x + 104 t722_x + 58 t723_x + 48 t724_x + 54 t725_x + 52 t726_x
      + 48 t727_x + 54 t728_x + 56 t729_x + 49 t730_x + 147 t731_x + 114 t732_x
      + 49 t733_x + 48 t734_x + 96 t735_x + 79 t736_x
Subject To
 c1:   t49_x + t102_x + t150_x + t151_x >= -64
 c2:   t39_x + t152_x + t153_x + t154_x + t155_x + t156_x + t157_x + t158_x
       + t159_x + t160_x + t161_x + t559_x >= -331
 c3:   t628_x + t687_x + t735_x >= 151
 c4:   t554_x + t555_x + t556_x + t557_x + t558_x + t559_x + t560_x >= -174
 c5:   t690_x >= 142
 c6:   t616_x + t626_x + t653_x + t661_x + t684_x + t731_x >= 16
 c7:   t459_x + t460_x >= 96
 c8:   t95_x + t108_x + t114_x + t130_x + t139_x + t269_x >= -120
 c9:   t18_x + t44_x + t63_x + t77_x + t141_x >= -174
 c10:  t327_x + t328_x + t329_x + t330_x + t331_x + t332_x + t333_x + t334_x
       + t335_x + t336_x >= -221
 c11:  t474_x + t479_x + t481_x + t498_x + t509_x + t516_x + t524_x + t534_x
       + t547_x + t563_x + t577_x + t671_x >= -363
 c12:  t93_x + t94_x + t95_x + t96_x + t97_x + t98_x + t99_x + t100_x >= -173
 c13:  t100_x + t156_x + t166_x + t171_x + t180_x + t213_x + t353_x >= -33
 c14:  t480_x + t481_x + t482_x + t483_x + t484_x + t485_x + t486_x + t487_x
       >= -108
 c15:  t304_x + t606_x + t614_x + t624_x + t651_x + t658_x + t714_x >= 6
 c16:  t8_x + t9_x + t10_x + t11_x + t12_x + t13_x >= 34
 c17:  t326_x + t386_x + t396_x + t404_x + t416_x + t425_x + t454_x + t573_x
       >= -147
 c18:  t694_x + t695_x >= 30
 c19:  t5_x + t11_x + t36_x + t70_x + t144_x + t556_x + t676_x >= -70
 c20:  t245_x + t246_x + t247_x + t248_x + t249_x + t250_x + t251_x + t252_x
       + t253_x + t254_x + t255_x >= -89
 c21:  t301_x + t325_x + t336_x + t351_x + t378_x + t385_x + t395_x + t403_x
       + t424_x + t453_x + t570_x >= -84
 c22:  t657_x + t658_x + t659_x + t660_x + t661_x + t662_x + t663_x >= -3
 c23:  t17_x + t31_x + t42_x + t61_x + t134_x >= -31
 c24:  t293_x + t294_x + t295_x + t296_x + t297_x + t298_x + t299_x + t300_x
       + t301_x >= -121
 c25:  t56_x + t270_x + t271_x + t272_x + t273_x + t274_x + t275_x + t276_x
       + t277_x + t278_x + t279_x + t280_x + t281_x + t282_x >= -206
 c26:  t663_x + t686_x + t733_x >= 188
 c27:  t302_x + t303_x + t304_x + t305_x + t306_x >= 85
 c28:  t54_x + t75_x + t176_x >= 7
 c29:  t673_x + t674_x + t675_x + t676_x + t677_x >= 45
 c30:  t627_x + t654_x + t662_x + t685_x + t732_x >= 75
 c31:  t581_x + t582_x + t583_x >= -156
 c32:  t151_x + t391_x >= 108
 c33:  t698_x + t699_x >= 121
 c34:  t306_x + t615_x + t660_x + t722_x >= 87
 c35:  t33_x + t34_x + t35_x + t36_x + t37_x + t38_x + t39_x >= 32
 c36:  t449_x + t538_x + t542_x + t664_x >= -44
 c37:  t2_x + t3_x + t4_x + t5_x + t6_x + t7_x >= 30
 c38:  t74_x + t173_x >= 70
 c39:  t568_x + t569_x >= 116
 c40:  t6_x + t12_x + t37_x + t71_x + t147_x + t557_x + t677_x >= 54
 c41:  t167_x + t182_x + t188_x + t200_x + t214_x + t226_x + t240_x + t379_x
       >= -29
 c42:  t50_x + t82_x + t103_x + t162_x >= -8
 c43:  t307_x + t308_x + t309_x + t310_x + t311_x + t312_x + t313_x + t314_x
       + t315_x >= 1
 c44:  t27_x + t109_x >= 71
 c45:  t177_x + t178_x + t179_x + t180_x + t181_x + t182_x + t183_x + t184_x
       + t185_x >= -36
 c46:  t475_x + t483_x + t510_x + t525_x + t535_x + t549_x + t564_x + t578_x
       + t590_x + t678_x >= -93
 c47:  t723_x + t724_x >= 86
 c48:  t397_x + t407_x + t419_x + t428_x + t436_x + t455_x + t602_x >= -55
 c49:  t679_x + t680_x + t681_x >= 45
 c50:  t106_x + t111_x + t121_x + t128_x + t137_x + t210_x >= -39
 c51:  t362_x + t363_x + t364_x + t365_x + t366_x + t367_x >= -8
 c52:  t223_x + t238_x + t280_x + t292_x + t294_x + t329_x + t346_x + t358_x
       + t371_x + t463_x >= -28
 c53:  t584_x + t585_x + t586_x + t587_x + t588_x >= -18
 c54:  t595_x + t600_x + t619_x + t633_x + t640_x + t713_x >= 29
 c55:  t194_x + t207_x + t232_x + t250_x + t263_x + t273_x + t310_x + t401_x
       >= 25
 c56:  t527_x + t528_x + t529_x + t530_x + t531_x + t532_x + t533_x + t534_x
       + t535_x + t536_x >= -4
 c57:  t484_x + t511_x + t550_x + t565_x + t585_x + t591_x + t682_x >= 19
 c58:  t729_x + t730_x >= 91
 c59:  t107_x + t112_x + t122_x + t138_x + t217_x >= -184
 c60:  t370_x + t371_x + t372_x + t373_x + t374_x + t375_x + t376_x + t377_x
       + t378_x >= -207
 c61:  t228_x + t229_x + t230_x + t231_x + t232_x + t233_x + t234_x + t235_x
       + t236_x + t237_x + t238_x >= -17
 c62:  t96_x + t115_x + t124_x + t131_x + t140_x + t316_x >= -75
 c63:  t402_x + t403_x + t404_x + t405_x + t406_x + t407_x + t408_x + t409_x
       >= -72
 c64:  t221_x + t254_x + t267_x + t278_x + t290_x + t313_x + t344_x + t356_x
       + t363_x + t461_x >= -22
 c65:  t596_x + t597_x + t598_x + t599_x + t600_x + t601_x >= -38
 c66:  t420_x + t430_x + t438_x + t457_x + t467_x + t490_x + t609_x >= -37
 c67:  t161_x + t184_x + t191_x + t204_x + t215_x + t227_x + t241_x + t243_x
       + t247_x + t260_x + t318_x + t392_x >= -71
 c68:  t502_x + t503_x + t504_x + t505_x + t506_x + t507_x + t508_x + t509_x
       + t510_x + t511_x + t512_x + t513_x >= -130
 c69:  t32_x + t43_x + t62_x + t135_x >= 78
 c70:  t487_x + t587_x + t598_x + t618_x + t631_x + t666_x + t704_x >= -128
 c71:  t126_x + t127_x + t128_x + t129_x + t130_x + t131_x >= -159
 c72:  t16_x + t30_x + t41_x + t60_x + t133_x >= -51
 c73:  t198_x + t199_x + t200_x + t201_x + t202_x + t203_x + t204_x + t205_x
       + t206_x + t207_x + t208_x + t209_x >= -227
 c74:  t98_x + t154_x + t164_x + t170_x + t178_x + t342_x >= -129
 c75:  t415_x + t416_x + t417_x + t418_x + t419_x + t420_x + t421_x + t422_x
       >= -236
 c76:  t398_x + t408_x + t429_x + t437_x + t456_x + t489_x + t603_x >= -291
 c77:  t691_x + t692_x + t693_x >= -16
 c78:  t222_x + t237_x + t255_x + t279_x + t291_x + t314_x + t320_x + t322_x
       + t328_x + t345_x + t357_x + t364_x + t462_x >= -258
 c79:  t589_x + t590_x + t591_x + t592_x + t593_x + t594_x + t595_x >= -253
 c80:  t380_x + t381_x + t382_x + t383_x + t384_x + t385_x + t386_x + t387_x
       >= -67
 c81:  t239_x + t240_x + t241_x >= 106
 c82:  t52_x + t84_x + t175_x >= 108
 c83:  t317_x + t318_x + t319_x + t320_x >= 102
 c84:  t136_x + t137_x + t138_x + t139_x + t140_x >= 65
 c85:  t45_x + t64_x + t78_x + t143_x >= 76
 c86:  t211_x + t212_x + t213_x + t214_x + t215_x >= 63
 c87:  t28_x + t125_x >= 129
 c88:  t727_x >= 114
 c89:  t387_x + t405_x + t417_x + t426_x + t574_x >= 72
 c90:  t649_x + t650_x + t651_x + t652_x + t653_x + t654_x >= 97
 c91:  t369_x >= 139
 c92:  t447_x >= 142
 c93:  t257_x >= 142
 c94:  t282_x + t296_x + t331_x + t348_x + t373_x + t465_x >= 68
 c95:  t575_x + t576_x + t577_x + t578_x + t579_x >= 66
 c96:  t610_x >= 134
 c97:  t720_x >= 149
 c98:  t486_x + t513_x + t551_x + t593_x + t597_x + t696_x >= 54
 c99:  t101_x + t102_x + t103_x + t104_x + t105_x + t106_x + t107_x + t108_x
       >= 45
 c100: t174_x >= 145
 c101: t611_x >= 144
 c102: t552_x >= 134
 c103: t220_x + t235_x + t244_x + t253_x + t266_x + t289_x + t312_x + t319_x
       + t338_x + t355_x + t433_x >= -20
 c104: t47_x + t80_x + t146_x >= 67
 c105: t225_x + t226_x + t227_x >= 79
 c106: t159_x + t189_x + t202_x + t389_x >= 81
 c107: t452_x + t453_x + t454_x + t455_x + t456_x + t457_x + t458_x >= 42
 c108: t406_x + t418_x + t427_x + t435_x + t580_x >= 51
 c109: t665_x + t666_x + t667_x >= 78
 c110: t99_x + t155_x + t165_x + t179_x + t212_x + t352_x >= 28
 c111: t423_x + t424_x + t425_x + t426_x + t427_x + t428_x + t429_x + t430_x
       + t431_x + t432_x >= -65
 c112: t19_x + t46_x + t65_x + t79_x + t145_x >= 1
 c113: t258_x + t259_x + t260_x + t261_x + t262_x + t263_x + t264_x + t265_x
       + t266_x + t267_x >= -11
 c114: t85_x + t105_x + t120_x + t127_x + t197_x >= -52
 c115: t354_x + t355_x + t356_x + t357_x + t358_x + t359_x + t360_x + t361_x
       >= -18
 c116: t298_x + t333_x + t349_x + t366_x + t375_x + t382_x + t501_x >= 0
 c117: t630_x + t631_x + t632_x + t633_x + t634_x >= -6
 c118: t441_x + t470_x + t494_x + t504_x + t520_x + t530_x + t644_x >= -18
 c119: t705_x + t706_x >= 78
 c120: t158_x + t201_x + t388_x >= 134
 c121: t476_x + t477_x + t478_x + t479_x >= 126
 c122: t689_x + t693_x + t734_x >= 96
 c123: t58_x + t59_x + t60_x + t61_x + t62_x + t63_x + t64_x + t65_x + t66_x
       >= 58
 c124: t601_x + t621_x + t641_x + t647_x + t721_x >= 58
 c125: t110_x + t111_x + t112_x + t113_x + t114_x + t115_x >= -15
 c126: t94_x + t113_x + t123_x + t129_x + t256_x >= 2
 c127: t393_x + t394_x + t395_x + t396_x + t397_x + t398_x >= 24
 c128: t4_x + t10_x + t35_x + t69_x + t142_x + t555_x + t583_x + t675_x >= -60
 c129: t286_x + t287_x + t288_x + t289_x + t290_x + t291_x + t292_x >= 65
 c130: t160_x + t183_x + t190_x + t203_x + t229_x + t246_x + t259_x + t390_x
       >= 51
 c131: t537_x + t538_x + t539_x >= 97
 c132: t193_x + t206_x + t231_x + t249_x + t262_x + t272_x + t309_x + t400_x
       >= 23
 c133: t561_x + t562_x + t563_x + t564_x + t565_x + t566_x >= 23
 c134: t422_x + t432_x + t439_x + t492_x + t519_x + t528_x + t636_x >= -8
 c135: t709_x + t710_x >= 129
 c136: t224_x + t281_x + t295_x + t315_x + t330_x + t347_x + t359_x + t372_x
       + t464_x >= 13
 c137: t157_x + t181_x + t187_x + t199_x + t368_x >= 81
 c138: t466_x + t467_x + t468_x + t469_x + t470_x + t471_x + t472_x + t473_x
       + t474_x + t475_x >= 26
 c139: t497_x + t507_x + t522_x + t532_x + t545_x + t576_x + t669_x >= 8
 c140: t725_x + t726_x >= 132
 c141: t7_x + t13_x + t38_x + t72_x + t149_x + t558_x >= -34
 c142: t639_x + t640_x + t641_x + t642_x >= 67
 c143: t604_x + t605_x + t606_x + t607_x >= 53
 c144: t434_x + t435_x + t436_x + t437_x + t438_x + t439_x + t440_x + t441_x
       + t442_x + t443_x >= -238
 c145: t91_x >= 120
 c146: t73_x + t168_x + t560_x >= 94
 c147: t637_x + t638_x >= 113
 c148: t715_x >= 119
 c149: t300_x + t335_x + t377_x + t384_x + t553_x >= 95
 c150: t337_x + t338_x >= 107
 c151: t274_x + t410_x >= 112
 c152: t514_x + t515_x + t516_x + t517_x >= 99
 c153: t20_x + t48_x + t66_x + t81_x + t148_x >= 31
 c154: t242_x + t243_x + t244_x >= 62
 c155: t196_x + t209_x + t219_x + t234_x + t252_x + t265_x + t276_x + t288_x
       + t311_x + t414_x >= 7
 c156: t518_x + t519_x + t520_x + t521_x + t522_x + t523_x + t524_x + t525_x
       + t526_x >= -6
 c157: t185_x + t192_x + t205_x + t230_x + t248_x + t261_x + t271_x + t287_x
       + t308_x + t399_x >= 3
 c158: t488_x + t489_x + t490_x + t491_x + t492_x + t493_x + t494_x + t495_x
       + t496_x + t497_x + t498_x >= -38
 c159: t440_x + t469_x + t493_x + t503_x + t529_x + t643_x >= 13
 c160: t700_x >= 89
 c161: t473_x + t508_x + t523_x + t533_x + t546_x + t562_x + t670_x >= 16
 c162: t711_x >= 99
 c163: t285_x + t299_x + t324_x + t334_x + t350_x + t361_x + t367_x + t376_x
       + t394_x + t541_x + t542_x >= -265
 c164: t499_x >= 119
 c165: t339_x >= 117
 c166: t340_x >= 112
 c167: t444_x >= 117
 c168: t445_x >= 116
 c169: t169_x + t170_x + t171_x >= 133
 c170: t701_x + t702_x >= 74
 c171: t97_x + t153_x + t341_x >= 117
 c172: t482_x + t548_x + t672_x >= 98
 c173: t703_x >= 132
 c174: t67_x >= 149
 c175: t620_x + t646_x + t716_x >= 130
 c176: t14_x + t15_x + t16_x + t17_x + t18_x + t19_x + t20_x >= 103
 c177: t51_x + t83_x + t104_x + t172_x >= -17
 c178: t343_x + t344_x + t345_x + t346_x + t347_x + t348_x + t349_x + t350_x
       + t351_x >= -53
 c179: t23_x + t87_x >= 81
 c180: t186_x + t187_x + t188_x + t189_x + t190_x + t191_x + t192_x + t193_x
       + t194_x + t195_x + t196_x >= -122
 c181: t442_x + t471_x + t478_x + t495_x + t505_x + t515_x + t521_x + t531_x
       + t655_x >= -68
 c182: t717_x + t718_x >= 74
 c183: t297_x + t323_x + t332_x + t360_x + t365_x + t374_x + t381_x + t500_x
       >= -19
 c184: t645_x + t646_x + t647_x + t648_x >= -13
 c185: t411_x >= 117
 c186: t268_x >= 119
 c187: t195_x + t208_x + t233_x + t251_x + t264_x + t275_x + t413_x >= 59
 c188: t608_x >= 87
 c189: t29_x + t132_x >= 96
 c190: t321_x + t322_x + t323_x + t324_x + t325_x + t326_x >= 57
 c191: t25_x + t89_x >= 77
 c192: t218_x + t219_x + t220_x + t221_x + t222_x + t223_x + t224_x >= -6
 c193: t55_x + t117_x + t216_x >= 129
 c194: t448_x + t449_x + t450_x >= 137
 c195: t412_x >= 119
 c196: t24_x + t88_x >= 100
 c197: t163_x + t164_x + t165_x + t166_x + t167_x >= 54
 c198: t443_x + t472_x + t496_x + t506_x + t544_x + t656_x >= 43
 c199: t712_x >= 106
 c200: t57_x + t118_x + t283_x >= 116
 c201: t567_x >= 146
 c202: t236_x + t277_x + t446_x >= 122
 c203: t623_x + t624_x + t625_x + t626_x + t627_x + t628_x + t629_x >= 89
 c204: t451_x >= 120
 c205: t635_x >= 123
 c206: t90_x >= 151
 c207: t284_x + t285_x >= 140
 c208: t622_x + t634_x + t642_x + t648_x + t681_x + t728_x >= 94
 c209: t40_x + t41_x + t42_x + t43_x + t44_x + t45_x + t46_x + t47_x + t48_x
       + t49_x + t50_x + t51_x + t52_x >= -56
 c210: t383_x + t540_x >= 146
 c211: t697_x >= 144
 c212: t26_x + t92_x >= 103
 c213: t668_x >= 89
 c214: t543_x + t544_x + t545_x + t546_x + t547_x + t548_x + t549_x + t550_x
       + t551_x >= -134
 c215: t303_x + t605_x + t613_x + t650_x + t707_x >= -14
 c216: t53_x + t54_x + t55_x + t56_x + t57_x >= 7
 c217: t1_x + t86_x >= 127
 c218: t571_x + t572_x >= 92
 c219: t0_x + t1_x + t680_x + t692_x + t702_x + t706_x >= 124
 c220: t409_x + t421_x + t431_x + t458_x + t468_x + t477_x + t491_x + t612_x
       + t613_x + t614_x + t615_x + t616_x >= -400
 c221: t617_x + t618_x + t619_x + t620_x + t621_x + t622_x >= -91
 c222: t485_x + t512_x + t517_x + t526_x + t536_x + t566_x + t579_x + t586_x
       + t592_x + t683_x + t684_x + t685_x + t686_x + t687_x >= -440
 c223: t450_x + t539_x + t688_x + t689_x >= 33
 c224: t588_x + t594_x + t599_x + t632_x + t667_x + t708_x >= 0
 c225: t305_x + t607_x + t625_x + t638_x + t652_x + t659_x + t719_x >= 20
 c226: t629_x + t736_x >= 154
 c227: t21_x + t695_x + t710_x + t718_x + t724_x + t726_x + t730_x >= 132
 c228: t22_x + t23_x + t24_x + t25_x + t26_x + t27_x + t28_x + t29_x + t30_x
       + t31_x + t32_x + t569_x >= -20
 c229: t68_x + t69_x + t70_x + t71_x + t72_x + t73_x + t74_x + t75_x >= -153
 c230: t76_x + t77_x + t78_x + t79_x + t80_x + t81_x + t82_x + t83_x + t84_x
       + t85_x >= -107
 c231: t15_x + t59_x + t116_x + t117_x + t118_x >= 44
 c232: t3_x + t9_x + t34_x + t119_x + t120_x + t121_x + t122_x + t123_x
       + t124_x + t460_x + t572_x + t582_x + t674_x + t699_x >= -601
 c233: t0_x <= 43
 c234: t1_x <= 16
 c235: t2_x <= 20
 c236: t3_x <= 55
 c237: t4_x <= 16
 c238: t5_x <= 11
 c239: t6_x <= 10
 c240: t7_x <= 18
 c241: t8_x <= 16
 c242: t9_x <= 50
 c243: t10_x <= 18
 c244: t11_x <= 14
 c245: t12_x <= 10
 c246: t13_x <= 18
 c247: t14_x <= 8
 c248: t15_x <= 9
 c249: t16_x <= 9
 c250: t17_x <= 7
 c251: t18_x <= 14
 c252: t19_x <= 5
 c253: t20_x <= 5
 c254: t21_x <= 42
 c255: t22_x <= 32
 c256: t23_x <= 22
 c257: t24_x <= 8
 c258: t25_x <= 13
 c259: t26_x <= 7
 c260: t27_x <= 22
 c261: t28_x <= 9
 c262: t29_x <= 7
 c263: t30_x <= 54
 c264: t31_x <= 33
 c265: t32_x <= 21
 c266: t33_x <= 11
 c267: t34_x <= 19
 c268: t35_x <= 7
 c269: t36_x <= 5
 c270: t37_x <= 5
 c271: t38_x <= 7
 c272: t39_x <= 42
 c273: t40_x <= 13
 c274: t41_x <= 16
 c275: t42_x <= 16
 c276: t43_x <= 8
 c277: t44_x <= 26
 c278: t45_x <= 6
 c279: t46_x <= 13
 c280: t47_x <= 5
 c281: t48_x <= 8
 c282: t49_x <= 34
 c283: t50_x <= 14
 c284: t51_x <= 20
 c285: t52_x <= 5
 c286: t53_x <= 18
 c287: t54_x <= 53
 c288: t55_x <= 6
 c289: t56_x <= 67
 c290: t57_x <= 9
 c291: t58_x <= 10
 c292: t59_x <= 15
 c293: t60_x <= 16
 c294: t61_x <= 12
 c295: t62_x <= 6
 c296: t63_x <= 21
 c297: t64_x <= 5
 c298: t65_x <= 11
 c299: t66_x <= 6
 c300: t67_x <= 11
 c301: t68_x <= 54
 c302: t69_x <= 33
 c303: t70_x <= 60
 c304: t71_x <= 27
 c305: t72_x <= 38
 c306: t73_x <= 12
 c307: t74_x <= 50
 c308: t75_x <= 95
 c309: t76_x <= 45
 c310: t77_x <= 73
 c311: t78_x <= 13
 c312: t79_x <= 26
 c313: t80_x <= 15
 c314: t81_x <= 23
 c315: t82_x <= 36
 c316: t83_x <= 49
 c317: t84_x <= 13
 c318: t85_x <= 30
 c319: t86_x <= 17
 c320: t87_x <= 57
 c321: t88_x <= 20
 c322: t89_x <= 38
 c323: t90_x <= 9
 c324: t91_x <= 8
 c325: t92_x <= 18
 c326: t93_x <= 88
 c327: t94_x <= 27
 c328: t95_x <= 66
 c329: t96_x <= 26
 c330: t97_x <= 10
 c331: t98_x <= 49
 c332: t99_x <= 21
 c333: t100_x <= 14
 c334: t101_x <= 14
 c335: t102_x <= 16
 c336: t103_x <= 6
 c337: t104_x <= 7
 c338: t105_x <= 6
 c339: t106_x <= 7
 c340: t107_x <= 17
 c341: t108_x <= 10
 c342: t109_x <= 35
 c343: t110_x <= 50
 c344: t111_x <= 10
 c345: t112_x <= 34
 c346: t113_x <= 10
 c347: t114_x <= 25
 c348: t115_x <= 14
 c349: t116_x <= 118
 c350: t117_x <= 12
 c351: t118_x <= 18
 c352: t119_x <= 128
 c353: t120_x <= 26
 c354: t121_x <= 37
 c355: t122_x <= 75
 c356: t123_x <= 25
 c357: t124_x <= 37
 c358: t125_x <= 22
 c359: t126_x <= 100
 c360: t127_x <= 35
 c361: t128_x <= 33
 c362: t129_x <= 21
 c363: t130_x <= 62
 c364: t131_x <= 36
 c365: t132_x <= 25
 c366: t133_x <= 116
 c367: t134_x <= 91
 c368: t135_x <= 47
 c369: t136_x <= 25
 c370: t137_x <= 6
 c371: t138_x <= 14
 c372: t139_x <= 13
 c373: t140_x <= 5
 c374: t141_x <= 168
 c375: t142_x <= 29
 c376: t143_x <= 28
 c377: t144_x <= 51
 c378: t145_x <= 72
 c379: t146_x <= 41
 c380: t147_x <= 19
 c381: t148_x <= 55
 c382: t149_x <= 39
 c383: t150_x <= 156
 c384: t151_x <= 74
 c385: t152_x <= 144
 c386: t153_x <= 11
 c387: t154_x <= 45
 c388: t155_x <= 20
 c389: t156_x <= 46
 c390: t157_x <= 13
 c391: t158_x <= 6
 c392: t159_x <= 9
 c393: t160_x <= 14
 c394: t161_x <= 30
 c395: t162_x <= 80
 c396: t163_x <= 39
 c397: t164_x <= 12
 c398: t165_x <= 5
 c399: t166_x <= 7
 c400: t167_x <= 11
 c401: t168_x <= 11
 c402: t169_x <= 17
 c403: t170_x <= 5
 c404: t171_x <= 5
 c405: t172_x <= 101
 c406: t173_x <= 40
 c407: t174_x <= 15
 c408: t175_x <= 34
 c409: t176_x <= 95
 c410: t177_x <= 68
 c411: t178_x <= 18
 c412: t179_x <= 9
 c413: t180_x <= 16
 c414: t181_x <= 6
 c415: t182_x <= 20
 c416: t183_x <= 8
 c417: t184_x <= 12
 c418: t185_x <= 7
 c419: t186_x <= 129
 c420: t187_x <= 8
 c421: t188_x <= 28
 c422: t189_x <= 7
 c423: t190_x <= 11
 c424: t191_x <= 18
 c425: t192_x <= 11
 c426: t193_x <= 11
 c427: t194_x <= 9
 c428: t195_x <= 7
 c429: t196_x <= 11
 c430: t197_x <= 83
 c431: t198_x <= 189
 c432: t199_x <= 16
 c433: t200_x <= 50
 c434: t201_x <= 6
 c435: t202_x <= 10
 c436: t203_x <= 17
 c437: t204_x <= 28
 c438: t205_x <= 17
 c439: t206_x <= 18
 c440: t207_x <= 13
 c441: t208_x <= 10
 c442: t209_x <= 13
 c443: t210_x <= 74
 c444: t211_x <= 35
 c445: t212_x <= 5
 c446: t213_x <= 8
 c447: t214_x <= 12
 c448: t215_x <= 5
 c449: t216_x <= 13
 c450: t217_x <= 172
 c451: t218_x <= 69
 c452: t219_x <= 7
 c453: t220_x <= 19
 c454: t221_x <= 8
 c455: t222_x <= 19
 c456: t223_x <= 6
 c457: t224_x <= 6
 c458: t225_x <= 34
 c459: t226_x <= 9
 c460: t227_x <= 6
 c461: t228_x <= 76
 c462: t229_x <= 8
 c463: t230_x <= 8
 c464: t231_x <= 8
 c465: t232_x <= 8
 c466: t233_x <= 6
 c467: t234_x <= 8
 c468: t235_x <= 21
 c469: t236_x <= 5
 c470: t237_x <= 20
 c471: t238_x <= 9
 c472: t239_x <= 39
 c473: t240_x <= 9
 c474: t241_x <= 6
 c475: t242_x <= 44
 c476: t243_x <= 8
 c477: t244_x <= 14
 c478: t245_x <= 104
 c479: t246_x <= 8
 c480: t247_x <= 15
 c481: t248_x <= 8
 c482: t249_x <= 10
 c483: t250_x <= 7
 c484: t251_x <= 6
 c485: t252_x <= 8
 c486: t253_x <= 19
 c487: t254_x <= 9
 c488: t255_x <= 23
 c489: t256_x <= 43
 c490: t257_x <= 18
 c491: t258_x <= 72
 c492: t259_x <= 6
 c493: t260_x <= 12
 c494: t261_x <= 6
 c495: t262_x <= 5
 c496: t263_x <= 5
 c497: t264_x <= 5
 c498: t265_x <= 6
 c499: t266_x <= 15
 c500: t267_x <= 7
 c501: t268_x <= 9
 c502: t269_x <= 160
 c503: t270_x <= 141
 c504: t271_x <= 18
 c505: t272_x <= 15
 c506: t273_x <= 16
 c507: t274_x <= 5
 c508: t275_x <= 12
 c509: t276_x <= 14
 c510: t277_x <= 9
 c511: t278_x <= 24
 c512: t279_x <= 56
 c513: t280_x <= 21
 c514: t281_x <= 16
 c515: t282_x <= 8
 c516: t283_x <= 17
 c517: t284_x <= 14
 c518: t285_x <= 6
 c519: t286_x <= 49
 c520: t287_x <= 5
 c521: t288_x <= 5
 c522: t289_x <= 12
 c523: t290_x <= 8
 c524: t291_x <= 11
 c525: t292_x <= 5
 c526: t293_x <= 134
 c527: t294_x <= 16
 c528: t295_x <= 12
 c529: t296_x <= 6
 c530: t297_x <= 10
 c531: t298_x <= 14
 c532: t299_x <= 44
 c533: t300_x <= 5
 c534: t301_x <= 8
 c535: t302_x <= 64
 c536: t303_x <= 26
 c537: t304_x <= 29
 c538: t305_x <= 39
 c539: t306_x <= 7
 c540: t307_x <= 49
 c541: t308_x <= 7
 c542: t309_x <= 7
 c543: t310_x <= 5
 c544: t311_x <= 7
 c545: t312_x <= 18
 c546: t313_x <= 8
 c547: t314_x <= 21
 c548: t315_x <= 5
 c549: t316_x <= 85
 c550: t317_x <= 32
 c551: t318_x <= 5
 c552: t319_x <= 10
 c553: t320_x <= 11
 c554: t321_x <= 31
 c555: t322_x <= 10
 c556: t323_x <= 5
 c557: t324_x <= 10
 c558: t325_x <= 6
 c559: t326_x <= 9
 c560: t327_x <= 151
 c561: t328_x <= 53
 c562: t329_x <= 21
 c563: t330_x <= 14
 c564: t331_x <= 10
 c565: t332_x <= 10
 c566: t333_x <= 18
 c567: t334_x <= 51
 c568: t335_x <= 7
 c569: t336_x <= 14
 c570: t337_x <= 16
 c571: t338_x <= 5
 c572: t339_x <= 11
 c573: t340_x <= 16
 c574: t341_x <= 22
 c575: t342_x <= 128
 c576: t343_x <= 69
 c577: t344_x <= 14
 c578: t345_x <= 24
 c579: t346_x <= 11
 c580: t347_x <= 7
 c581: t348_x <= 5
 c582: t349_x <= 10
 c583: t350_x <= 33
 c584: t351_x <= 8
 c585: t352_x <= 40
 c586: t353_x <= 97
 c587: t354_x <= 53
 c588: t355_x <= 17
 c589: t356_x <= 7
 c590: t357_x <= 19
 c591: t358_x <= 7
 c592: t359_x <= 5
 c593: t360_x <= 13
 c594: t361_x <= 25
 c595: t362_x <= 58
 c596: t363_x <= 9
 c597: t364_x <= 20
 c598: t365_x <= 12
 c599: t366_x <= 8
 c600: t367_x <= 29
 c601: t368_x <= 36
 c602: t369_x <= 21
 c603: t370_x <= 143
 c604: t371_x <= 16
 c605: t372_x <= 16
 c606: t373_x <= 10
 c607: t374_x <= 30
 c608: t375_x <= 22
 c609: t376_x <= 56
 c610: t377_x <= 5
 c611: t378_x <= 37
 c612: t379_x <= 106
 c613: t380_x <= 135
 c614: t381_x <= 27
 c615: t382_x <= 18
 c616: t383_x <= 5
 c617: t384_x <= 5
 c618: t385_x <= 27
 c619: t386_x <= 56
 c620: t387_x <= 10
 c621: t388_x <= 14
 c622: t389_x <= 21
 c623: t390_x <= 37
 c624: t391_x <= 68
 c625: t392_x <= 54
 c626: t393_x <= 36
 c627: t394_x <= 17
 c628: t395_x <= 9
 c629: t396_x <= 13
 c630: t397_x <= 9
 c631: t398_x <= 20
 c632: t399_x <= 38
 c633: t400_x <= 31
 c634: t401_x <= 40
 c635: t402_x <= 53
 c636: t403_x <= 13
 c637: t404_x <= 27
 c638: t405_x <= 6
 c639: t406_x <= 8
 c640: t407_x <= 17
 c641: t408_x <= 35
 c642: t409_x <= 41
 c643: t410_x <= 11
 c644: t411_x <= 11
 c645: t412_x <= 9
 c646: t413_x <= 23
 c647: t414_x <= 42
 c648: t415_x <= 103
 c649: t416_x <= 53
 c650: t417_x <= 12
 c651: t418_x <= 16
 c652: t419_x <= 32
 c653: t420_x <= 32
 c654: t421_x <= 92
 c655: t422_x <= 24
 c656: t423_x <= 48
 c657: t424_x <= 11
 c658: t425_x <= 22
 c659: t426_x <= 5
 c660: t427_x <= 7
 c661: t428_x <= 12
 c662: t429_x <= 34
 c663: t430_x <= 13
 c664: t431_x <= 33
 c665: t432_x <= 8
 c666: t433_x <= 86
 c667: t434_x <= 125
 c668: t435_x <= 14
 c669: t436_x <= 28
 c670: t437_x <= 85
 c671: t438_x <= 46
 c672: t439_x <= 28
 c673: t440_x <= 28
 c674: t441_x <= 30
 c675: t442_x <= 53
 c676: t443_x <= 17
 c677: t444_x <= 11
 c678: t445_x <= 12
 c679: t446_x <= 24
 c680: t447_x <= 18
 c681: t448_x <= 8
 c682: t449_x <= 6
 c683: t450_x <= 9
 c684: t451_x <= 8
 c685: t452_x <= 22
 c686: t453_x <= 7
 c687: t454_x <= 8
 c688: t455_x <= 7
 c689: t456_x <= 16
 c690: t457_x <= 9
 c691: t458_x <= 17
 c692: t459_x <= 101
 c693: t460_x <= 83
 c694: t461_x <= 56
 c695: t462_x <= 99
 c696: t463_x <= 44
 c697: t464_x <= 34
 c698: t465_x <= 21
 c699: t466_x <= 29
 c700: t467_x <= 10
 c701: t468_x <= 22
 c702: t469_x <= 5
 c703: t470_x <= 8
 c704: t471_x <= 14
 c705: t472_x <= 5
 c706: t473_x <= 8
 c707: t474_x <= 25
 c708: t475_x <= 8
 c709: t476_x <= 12
 c710: t477_x <= 8
 c711: t478_x <= 5
 c712: t479_x <= 9
 c713: t480_x <= 100
 c714: t481_x <= 24
 c715: t482_x <= 7
 c716: t483_x <= 24
 c717: t484_x <= 16
 c718: t485_x <= 53
 c719: t486_x <= 10
 c720: t487_x <= 34
 c721: t488_x <= 36
 c722: t489_x <= 19
 c723: t490_x <= 12
 c724: t491_x <= 25
 c725: t492_x <= 7
 c726: t493_x <= 7
 c727: t494_x <= 8
 c728: t495_x <= 14
 c729: t496_x <= 5
 c730: t497_x <= 6
 c731: t498_x <= 27
 c732: t499_x <= 9
 c733: t500_x <= 72
 c734: t501_x <= 38
 c735: t502_x <= 62
 c736: t503_x <= 13
 c737: t504_x <= 14
 c738: t505_x <= 23
 c739: t506_x <= 6
 c740: t507_x <= 13
 c741: t508_x <= 12
 c742: t509_x <= 45
 c743: t510_x <= 16
 c744: t511_x <= 11
 c745: t512_x <= 36
 c746: t513_x <= 7
 c747: t514_x <= 10
 c748: t515_x <= 5
 c749: t516_x <= 8
 c750: t517_x <= 6
 c751: t518_x <= 38
 c752: t519_x <= 7
 c753: t520_x <= 7
 c754: t521_x <= 14
 c755: t522_x <= 6
 c756: t523_x <= 6
 c757: t524_x <= 28
 c758: t525_x <= 10
 c759: t526_x <= 18
 c760: t527_x <= 34
 c761: t528_x <= 7
 c762: t529_x <= 8
 c763: t530_x <= 9
 c764: t531_x <= 11
 c765: t532_x <= 8
 c766: t533_x <= 6
 c767: t534_x <= 22
 c768: t535_x <= 10
 c769: t536_x <= 17
 c770: t537_x <= 24
 c771: t538_x <= 16
 c772: t539_x <= 23
 c773: t540_x <= 9
 c774: t541_x <= 121
 c775: t542_x <= 89
 c776: t543_x <= 160
 c777: t544_x <= 18
 c778: t545_x <= 20
 c779: t546_x <= 23
 c780: t547_x <= 69
 c781: t548_x <= 6
 c782: t549_x <= 26
 c783: t550_x <= 17
 c784: t551_x <= 11
 c785: t552_x <= 26
 c786: t553_x <= 11
 c787: t554_x <= 139
 c788: t555_x <= 46
 c789: t556_x <= 25
 c790: t557_x <= 24
 c791: t558_x <= 42
 c792: t559_x <= 167
 c793: t560_x <= 11
 c794: t561_x <= 40
 c795: t562_x <= 6
 c796: t563_x <= 27
 c797: t564_x <= 9
 c798: t565_x <= 6
 c799: t566_x <= 17
 c800: t567_x <= 14
 c801: t568_x <= 36
 c802: t569_x <= 8
 c803: t570_x <= 72
 c804: t571_x <= 38
 c805: t572_x <= 30
 c806: t573_x <= 119
 c807: t574_x <= 23
 c808: t575_x <= 26
 c809: t576_x <= 5
 c810: t577_x <= 13
 c811: t578_x <= 5
 c812: t579_x <= 13
 c813: t580_x <= 32
 c814: t581_x <= 204
 c815: t582_x <= 147
 c816: t583_x <= 55
 c817: t584_x <= 77
 c818: t585_x <= 7
 c819: t586_x <= 29
 c820: t587_x <= 16
 c821: t588_x <= 17
 c822: t589_x <= 193
 c823: t590_x <= 29
 c824: t591_x <= 17
 c825: t592_x <= 72
 c826: t593_x <= 11
 c827: t594_x <= 40
 c828: t595_x <= 19
 c829: t596_x <= 97
 c830: t597_x <= 6
 c831: t598_x <= 19
 c832: t599_x <= 27
 c833: t600_x <= 8
 c834: t601_x <= 9
 c835: t602_x <= 78
 c836: t603_x <= 210
 c837: t604_x <= 41
 c838: t605_x <= 9
 c839: t606_x <= 8
 c840: t607_x <= 17
 c841: t608_x <= 41
 c842: t609_x <= 75
 c843: t610_x <= 26
 c844: t611_x <= 16
 c845: t612_x <= 179
 c846: t613_x <= 66
 c847: t614_x <= 44
 c848: t615_x <= 16
 c849: t616_x <= 73
 c850: t617_x <= 213
 c851: t618_x <= 40
 c852: t619_x <= 19
 c853: t620_x <= 6
 c854: t621_x <= 16
 c855: t622_x <= 13
 c856: t623_x <= 20
 c857: t624_x <= 6
 c858: t625_x <= 13
 c859: t626_x <= 10
 c860: t627_x <= 8
 c861: t628_x <= 7
 c862: t629_x <= 7
 c863: t630_x <= 84
 c864: t631_x <= 18
 c865: t632_x <= 20
 c866: t633_x <= 7
 c867: t634_x <= 5
 c868: t635_x <= 37
 c869: t636_x <= 55
 c870: t637_x <= 9
 c871: t638_x <= 6
 c872: t639_x <= 46
 c873: t640_x <= 5
 c874: t641_x <= 5
 c875: t642_x <= 5
 c876: t643_x <= 54
 c877: t644_x <= 70
 c878: t645_x <= 121
 c879: t646_x <= 5
 c880: t647_x <= 7
 c881: t648_x <= 8
 c882: t649_x <= 20
 c883: t650_x <= 8
 c884: t651_x <= 6
 c885: t652_x <= 11
 c886: t653_x <= 9
 c887: t654_x <= 9
 c888: t655_x <= 89
 c889: t656_x <= 34
 c890: t657_x <= 66
 c891: t658_x <= 5
 c892: t659_x <= 28
 c893: t660_x <= 2
 c894: t661_x <= 9
 c895: t662_x <= 11
 c896: t663_x <= 10
 c897: t664_x <= 93
 c898: t665_x <= 30
 c899: t666_x <= 9
 c900: t667_x <= 11
 c901: t668_x <= 39
 c902: t669_x <= 62
 c903: t670_x <= 51
 c904: t671_x <= 194
 c905: t672_x <= 17
 c906: t673_x <= 87
 c907: t674_x <= 59
 c908: t675_x <= 16
 c909: t676_x <= 32
 c910: t677_x <= 11
 c911: t678_x <= 84
 c912: t679_x <= 72
 c913: t680_x <= 6
 c914: t681_x <= 5
 c915: t682_x <= 35
 c916: t683_x <= 153
 c917: t684_x <= 78
 c918: t685_x <= 67
 c919: t686_x <= 26
 c920: t687_x <= 71
 c921: t688_x <= 143
 c922: t689_x <= 8
 c923: t690_x <= 18
 c924: t691_x <= 123
 c925: t692_x <= 13
 c926: t693_x <= 8
 c927: t694_x <= 119
 c928: t695_x <= 11
 c929: t696_x <= 29
 c930: t697_x <= 16
 c931: t698_x <= 83
 c932: t699_x <= 46
 c933: t700_x <= 39
 c934: t701_x <= 79
 c935: t702_x <= 7
 c936: t703_x <= 28
 c937: t704_x <= 120
 c938: t705_x <= 43
 c939: t706_x <= 7
 c940: t707_x <= 65
 c941: t708_x <= 101
 c942: t709_x <= 26
 c943: t710_x <= 5
 c944: t711_x <= 29
 c945: t712_x <= 22
 c946: t713_x <= 41
 c947: t714_x <= 56
 c948: t715_x <= 9
 c949: t716_x <= 19
 c950: t717_x <= 43
 c951: t718_x <= 11
 c952: t719_x <= 82
 c953: t720_x <= 11
 c954: t721_x <= 33
 c955: t722_x <= 16
 c956: t723_x <= 37
 c957: t724_x <= 5
 c958: t725_x <= 23
 c959: t726_x <= 5
 c960: t727_x <= 14
 c961: t728_x <= 30
 c962: t729_x <= 32
 c963: t730_x <= 5
 c964: t731_x <= 85
 c965: t732_x <= 80
 c966: t733_x <= 26
 c967: t734_x <= 16
 c968: t735_x <= 51
 c969: t736_x <= 55
End
